NAME          
ROWS
 N  OBJ
 L  c1
 L  c2
 L  c3
COLUMNS
    MARKER    'MARKER'                 'INTORG'
    x[1]      c1        976
    x[1]      c2        16
    x[1]      c3        664
    x[1]      OBJ       -108
    x[2]      c1        571
    x[2]      c2        178
    x[2]      c3        629
    x[2]      OBJ       -275
    x[3]      c1        18
    x[3]      c2        934
    x[3]      c3        269
    x[3]      OBJ       -792
    x[4]      c1        746
    x[4]      c2        967
    x[4]      c3        178
    x[4]      OBJ       -552
    x[5]      c1        844
    x[5]      c2        179
    x[5]      c3        860
    x[5]      OBJ       -566
    x[6]      c1        390
    x[6]      c2        55
    x[6]      c3        98
    x[6]      OBJ       -43
    x[7]      c1        63
    x[7]      c2        584
    x[7]      c3        470
    x[7]      OBJ       -690
    x[8]      c1        177
    x[8]      c2        132
    x[8]      c3        213
    x[8]      OBJ       -797
    x[9]      c1        482
    x[9]      c2        661
    x[9]      c3        833
    x[9]      OBJ       -326
    x[10]     c1        688
    x[10]     c2        858
    x[10]     c3        862
    x[10]     OBJ       -386
RHS
    rhs       c1        2478
    rhs       c2        2282
    rhs       c3        2538
RANGES
BOUNDS
 BV bounds    x[1]
 BV bounds    x[2]
 BV bounds    x[3]
 BV bounds    x[4]
 BV bounds    x[5]
 BV bounds    x[6]
 BV bounds    x[7]
 BV bounds    x[8]
 BV bounds    x[9]
 BV bounds    x[10]
ENDATA
